10
5
280058
0
0
129 16 16 44 1
1
0
387 10 168 15 2
2
0
18 204 1 115 21
3
0
22 258 10 17 15
4
0
72 396 10 63 122
5
0
77 63 172 50 70
6
0
23 26 1 57 6
7
0
46 45 29 17 98
8
0
17 50 17 8 60
9
0
18 230 120 19 2
